n_res = 4;
rc = [ 0, 0, 0, 0 ];
n_tasks = 30;
d = [ 9, 7, 1, 8, 10, 8, 3, 7, 4, 1, 6, 7, 3, 1, 2, 1, 6, 6, 4, 10, 2, 9, 3, 2, 3, 10, 3, 5, 8, 10 ];
rr = [| 0, 0, 0, 0, 0, 0, 0, 0, 0, 0, 0, 0, 0, 0, 0, 0, 0, 0, 0, 0, 0, 0, 0, 0, 0, 0, 0, 0, 0, 0
      | 0, 0, 0, 0, 0, 0, 0, 0, 0, 0, 0, 0, 0, 0, 0, 0, 0, 0, 0, 0, 0, 0, 0, 0, 0, 0, 0, 0, 0, 0
      | 0, 0, 0, 0, 0, 0, 0, 0, 0, 0, 0, 0, 0, 0, 0, 0, 0, 0, 0, 0, 0, 0, 0, 0, 0, 0, 0, 0, 0, 0
      | 0, 0, 0, 0, 0, 0, 0, 0, 0, 0, 0, 0, 0, 0, 0, 0, 0, 0, 0, 0, 0, 0, 0, 0, 0, 0, 0, 0, 0, 0 |];
suc = [ { 7, 26 },
       { 4, 5, 6 },
       { 8, 11, 18 },
       { 7, 8, 22 },
       { 10, 19 },
       { 19, 24 },
       { 9, 13, 20 },
       { 9, 20 },
       { 12, 14, 27 },
       { 11, 14, 16 },
       { 23 },
       { 15, 17 },
       { 15, 28, 29 },
       { 15 },
       { 30 },
       { 21 },
       { 29 },
       { 19, 24, 25 },
       { 27, 28 },
       { 29 },
       { 22, 23 },
       { 30 },
       { 24, 25, 28 },
       { 26 },
       { 26 },
       { 27 },
       { 30 },
       {  },
       {  },
       {  } ];
